//Parameters
Products = {"Product 1", "Product 2"};
Machines = {"Machine 1","Machine 2","Machine 3"};
Days = {"Day 1", "Day 2", "Day 3", "Day 4", "Day 5", "Day 6", "Day 7"};
Consumption = [[1,1,3],[5,1,1]];
Income = [10,40];
MCapacities = [[20,20,25,15,20,10,10],
			   [5,7,7,10,10,5,5],
			   [12,10,20,15,15,12,12]];
